words_hard_train/8488.qaiger
aag 74 16 0 1 58
2
4
12
14
18
22
24
28
32
34
38
42
52
58
62
72
148
6 2 4
8 3 5
10 7 9
16 12 15
20 17 19
26 22 24
30 27 29
36 32 35
40 37 39
44 38 42
46 41 45
48 47 23
50 30 49
54 28 53
56 51 55
60 57 59
64 58 63
66 61 65
68 67 13
70 20 69
74 18 72
76 71 75
78 11 77
80 10 76
82 79 81
84 59 62
86 85 65
88 87 56
90 86 57
92 89 91
94 46 22
96 95 49
98 29 52
100 99 55
102 96 101
104 33 34
106 39 43
108 107 45
110 104 108
112 109 36
114 111 113
116 97 25
118 115 117
120 103 118
122 100 24
124 120 123
126 19 73
128 127 75
130 129 15
132 66 12
134 133 69
136 131 135
138 124 137
140 93 138
142 128 14
144 143 134
146 140 145
148 82 146
i0 1 x2[7]
i1 2 y2[7]
i2 1 x2[5]
i3 2 y2[5]
i4 1 x2[6]
i5 1 x2[2]
i6 2 y2[2]
i7 1 x2[3]
i8 1 x2[0]
i9 2 y2[0]
i10 1 x2[1]
i11 2 y2[1]
i12 2 y2[3]
i13 1 x2[4]
i14 2 y2[4]
i15 2 y2[6]
o0 bool[0]
c
simplified
  ==
    2 y2
    add
      invert
        2 y2
      xor
        2 y2
        1 x2
