words_hard_train/8488.qaiger.qdimacs
p cnf 74 175
a 1 6 9 11 14 16 19 29 0
e 2 3 4 5 7 8 10 12 13 15 17 18 20 21 22 23 24 25 26 27 28 30 31 32 33 34 35 36 37 38 39 40 41 42 43 44 45 46 47 48 49 50 51 52 53 54 55 56 57 58 59 60 61 62 63 64 65 66 67 68 69 70 71 72 73 74 0
-1 -2 3 0
1 -3 0
2 -3 0
1 2 4 0
-1 -4 0
-2 -4 0
3 4 5 0
-3 -5 0
-4 -5 0
-6 7 8 0
6 -8 0
-7 -8 0
8 9 10 0
-8 -10 0
-9 -10 0
-11 -12 13 0
11 -13 0
12 -13 0
13 14 15 0
-13 -15 0
-14 -15 0
-16 17 18 0
16 -18 0
-17 -18 0
18 19 20 0
-18 -20 0
-19 -20 0
-19 -21 22 0
19 -22 0
21 -22 0
20 22 23 0
-20 -23 0
-22 -23 0
23 11 24 0
-23 -24 0
-11 -24 0
-15 24 25 0
15 -25 0
-24 -25 0
-14 26 27 0
14 -27 0
-26 -27 0
25 27 28 0
-25 -28 0
-27 -28 0
28 29 30 0
-28 -30 0
-29 -30 0
-29 31 32 0
29 -32 0
-31 -32 0
30 32 33 0
-30 -33 0
-32 -33 0
33 6 34 0
-33 -34 0
-6 -34 0
-10 34 35 0
10 -35 0
-34 -35 0
-9 -36 37 0
9 -37 0
36 -37 0
35 37 38 0
-35 -38 0
-37 -38 0
5 38 39 0
-5 -39 0
-38 -39 0
-5 -38 40 0
5 -40 0
38 -40 0
39 40 41 0
-39 -41 0
-40 -41 0
29 -31 42 0
-29 -42 0
31 -42 0
42 32 43 0
-42 -43 0
-32 -43 0
43 -28 44 0
-43 -44 0
28 -44 0
-43 28 45 0
43 -45 0
-28 -45 0
44 45 46 0
-44 -46 0
-45 -46 0
-23 -11 47 0
23 -47 0
11 -47 0
47 24 48 0
-47 -48 0
-24 -48 0
14 -26 49 0
-14 -49 0
26 -49 0
49 27 50 0
-49 -50 0
-27 -50 0
-48 50 51 0
48 -51 0
-50 -51 0
16 -17 52 0
-16 -52 0
17 -52 0
19 21 53 0
-19 -53 0
-21 -53 0
53 22 54 0
-53 -54 0
-22 -54 0
-52 -54 55 0
52 -55 0
54 -55 0
54 -18 56 0
-54 -56 0
18 -56 0
55 56 57 0
-55 -57 0
-56 -57 0
48 12 58 0
-48 -58 0
-12 -58 0
57 58 59 0
-57 -59 0
-58 -59 0
51 -59 60 0
-51 -60 0
59 -60 0
-50 -12 61 0
50 -61 0
12 -61 0
-60 61 62 0
60 -62 0
-61 -62 0
9 36 63 0
-9 -63 0
-36 -63 0
63 37 64 0
-63 -64 0
-37 -64 0
64 7 65 0
-64 -65 0
-7 -65 0
-33 -6 66 0
33 -66 0
6 -66 0
66 34 67 0
-66 -67 0
-34 -67 0
65 67 68 0
-65 -68 0
-67 -68 0
-62 68 69 0
62 -69 0
-68 -69 0
46 -69 70 0
-46 -70 0
69 -70 0
-64 -7 71 0
64 -71 0
7 -71 0
71 -67 72 0
-71 -72 0
67 -72 0
-70 72 73 0
70 -73 0
-72 -73 0
-41 -73 74 0
41 -74 0
73 -74 0
74 0
